! Tetrafluoreto de Uranio
 $CONTRL 
        SCFTYP=RHF 
        RUNTYP=ENERGY 
        COORD=UNIQUE 
        NZVAR=0 
        MAXIT=100 
 $END
 $SYSTEM 
        TIMLIM=2 
        MEMORY=100000 
 $END
 $STATPT 
        OPTTOL=1.0E-5  
 $END
 $BASIS  
        GBASIS=STO 
        NGAUSS=3 
 $END
 $GUESS  
        GUESS=HUCKEL 
 $END
 $SCF 
        EXTRAP=.FALSE.
        DAMP=.FALSE.
        SHIFT=.FALSE.
        RSTRCT=.FALSE.
        DIIS=.FALSE.
        SOSCF=.TRUE.
        DEM=.FALSE.
        ETHRSH = 10.d0
        SOGTOL = 100.d0 
 $END
 $DATA
UF4 - Challenging case
C1
 F    9.0   0.000000     0.000000     0.000000
 Te  52.0   0.000000     0.000000     2.567600
 F    9.0   2.420756     0.000000     3.423467
 F    9.0  -1.210378     2.096437     3.423467
 F    9.0  -1.210378    -2.096437     3.423467
$END
